Academic license - for non-commercial use only - expires 2022-11-10
Using license file /home/benedond/Apps/gurobi/gurobi950/gurobi.lic
Using gurobi.env file
Set parameter Threads to value 1
Changed value of parameter TimeLimit to 300.0
   Prev: inf  Min: 0.0  Max: inf  Default: inf
Gurobi Optimizer version 9.1.2 build v9.1.2rc0 (linux64)
Thread count: 2 physical cores, 4 logical processors, using up to 1 threads
Optimize a model with 1008 rows, 907 columns and 4309 nonzeros
Model fingerprint: 0xb459e99f
Variable types: 40 continuous, 867 integer (867 binary)
Coefficient statistics:
  Matrix range     [1e-01, 2e+02]
  Objective range  [6e-02, 4e-01]
  Bounds range     [1e+00, 1e+00]
  RHS range        [1e+00, 7e+02]
Found heuristic solution: objective 4.4822229
Presolve removed 130 rows and 55 columns
Presolve time: 0.03s
Presolved: 878 rows, 852 columns, 3991 nonzeros
Variable types: 39 continuous, 813 integer (813 binary)

Root relaxation: objective 3.055469e+00, 736 iterations, 0.01 seconds

    Nodes    |    Current Node    |     Objective Bounds      |     Work
 Expl Unexpl |  Obj  Depth IntInf | Incumbent    BestBd   Gap | It/Node Time

     0     0    3.05547    0   58    4.48222    3.05547  31.8%     -    0s
H    0     0                       3.9209266    3.05547  22.1%     -    0s
H    0     0                       3.9043150    3.05547  21.7%     -    0s
     0     0    3.08987    0   58    3.90431    3.08987  20.9%     -    0s
H    0     0                       3.8945703    3.08987  20.7%     -    0s
     0     0    3.09518    0   67    3.89457    3.09518  20.5%     -    0s
     0     0    3.14598    0   56    3.89457    3.14598  19.2%     -    0s
H    0     0                       3.7374110    3.14598  15.8%     -    0s
H    0     0                       3.6177954    3.14598  13.0%     -    0s
     0     0    3.15064    0   57    3.61780    3.15064  12.9%     -    0s
     0     0    3.20467    0   54    3.61780    3.20467  11.4%     -    0s
H    0     0                       3.5901359    3.20467  10.7%     -    0s
H    0     0                       3.4150281    3.20467  6.16%     -    0s
     0     0    3.21144    0   52    3.41503    3.21144  5.96%     -    0s
     0     0    3.23559    0   52    3.41503    3.23559  5.25%     -    0s
     0     0    3.24526    0   48    3.41503    3.24526  4.97%     -    0s
     0     0    3.26003    0   60    3.41503    3.26003  4.54%     -    0s
     0     0    3.26277    0   47    3.41503    3.26277  4.46%     -    0s
     0     0    3.26540    0   45    3.41503    3.26540  4.38%     -    0s
     0     0    3.26632    0   57    3.41503    3.26632  4.35%     -    0s
     0     0    3.26981    0   55    3.41503    3.26981  4.25%     -    0s
     0     0    3.27082    0   43    3.41503    3.27082  4.22%     -    0s
     0     0    3.27313    0   43    3.41503    3.27313  4.16%     -    0s
     0     0    3.27407    0   58    3.41503    3.27407  4.13%     -    0s
     0     0    3.27434    0   53    3.41503    3.27434  4.12%     -    0s
     0     0    3.27453    0   62    3.41503    3.27453  4.11%     -    0s
     0     0    3.27462    0   62    3.41503    3.27462  4.11%     -    0s
     0     0    3.27594    0   64    3.41503    3.27594  4.07%     -    0s
     0     0    3.27681    0   64    3.41503    3.27681  4.05%     -    0s
     0     0    3.27689    0   69    3.41503    3.27689  4.04%     -    0s
     0     0    3.27935    0   60    3.41503    3.27935  3.97%     -    0s
     0     0    3.28015    0   57    3.41503    3.28015  3.95%     -    0s
     0     0    3.28026    0   58    3.41503    3.28026  3.95%     -    0s
     0     0    3.28097    0   65    3.41503    3.28097  3.93%     -    0s
     0     0    3.28104    0   70    3.41503    3.28104  3.92%     -    0s
     0     0    3.28115    0   70    3.41503    3.28115  3.92%     -    0s
     0     0    3.28115    0   70    3.41503    3.28115  3.92%     -    0s
H    0     0                       3.4150281    3.28115  3.92%     -    0s
     0     0    3.28291    0   79    3.41503    3.28291  3.87%     -    0s
     0     0    3.28291    0   67    3.41503    3.28291  3.87%     -    0s
     0     0    3.28291    0   77    3.41503    3.28291  3.87%     -    0s
     0     0    3.28291    0   74    3.41503    3.28291  3.87%     -    0s
     0     0    3.28291    0   68    3.41503    3.28291  3.87%     -    0s
     0     0    3.28291    0   70    3.41503    3.28291  3.87%     -    0s
     0     0    3.28291    0   47    3.41503    3.28291  3.87%     -    0s
     0     0    3.28291    0   58    3.41503    3.28291  3.87%     -    0s
     0     0    3.28291    0   57    3.41503    3.28291  3.87%     -    0s
     0     0    3.28291    0   70    3.41503    3.28291  3.87%     -    0s
     0     0    3.28291    0   68    3.41503    3.28291  3.87%     -    0s
     0     0    3.28291    0   59    3.41503    3.28291  3.87%     -    0s
     0     0    3.28291    0   59    3.41503    3.28291  3.87%     -    0s
     0     0    3.28291    0   67    3.41503    3.28291  3.87%     -    0s
H    0     0                       3.3618845    3.28291  2.35%     -    0s
     0     0    3.28291    0   70    3.36188    3.28291  2.35%     -    0s
     0     0    3.28330    0   79    3.36188    3.28330  2.34%     -    0s
     0     0    3.28330    0   74    3.36188    3.28330  2.34%     -    0s
     0     0    3.28330    0   53    3.36188    3.28330  2.34%     -    0s
     0     0    3.28330    0   67    3.36188    3.28330  2.34%     -    1s
     0     0    3.28330    0   55    3.36188    3.28330  2.34%     -    1s
     0     0    3.28330    0   41    3.36188    3.28330  2.34%     -    1s
     0     0    3.28330    0   60    3.36188    3.28330  2.34%     -    1s
     0     0    3.28330    0   66    3.36188    3.28330  2.34%     -    1s
     0     0    3.28330    0   64    3.36188    3.28330  2.34%     -    1s
H    0     0                       3.3518897    3.28330  2.05%     -    1s
     0     0    3.28330    0   81    3.35189    3.28330  2.05%     -    1s
     0     0    3.28364    0   81    3.35189    3.28364  2.04%     -    1s
     0     0    3.28370    0   77    3.35189    3.28370  2.03%     -    1s
     0     0    3.28377    0   73    3.35189    3.28377  2.03%     -    1s
     0     0    3.28377    0   73    3.35189    3.28377  2.03%     -    1s
     0     0    3.28765    0   74    3.35189    3.28765  1.92%     -    1s
     0     0    3.28765    0   50    3.35189    3.28765  1.92%     -    1s
     0     0    3.28765    0   79    3.35189    3.28765  1.92%     -    1s
     0     0    3.28765    0   54    3.35189    3.28765  1.92%     -    1s
     0     0    3.28765    0   59    3.35189    3.28765  1.92%     -    1s
     0     0    3.28765    0   66    3.35189    3.28765  1.92%     -    1s
     0     0    3.28765    0   70    3.35189    3.28765  1.92%     -    1s
     0     0    3.28765    0   70    3.35189    3.28765  1.92%     -    1s
     0     0    3.28765    0   81    3.35189    3.28765  1.92%     -    1s
     0     0    3.28765    0   81    3.35189    3.28765  1.92%     -    1s
     0     0    3.28765    0   82    3.35189    3.28765  1.92%     -    1s
     0     0    3.28765    0   84    3.35189    3.28765  1.92%     -    1s
     0     0    3.28765    0   84    3.35189    3.28765  1.92%     -    1s
     0     0    3.28765    0   77    3.35189    3.28765  1.92%     -    1s
     0     2    3.28828    0   77    3.35189    3.28828  1.90%     -    1s
*   46    25              12       3.3240949    3.29237  0.95%  21.3    1s
*  249    45              10       3.3195577    3.30529  0.43%  21.5    2s

Cutting planes:
  Cover: 19
  Implied bound: 14
  Clique: 8
  MIR: 38
  StrongCG: 5
  Mod-K: 5
  RLT: 7
  Relax-and-lift: 37

Explored 342 nodes (15156 simplex iterations) in 2.12 seconds
Thread count was 1 (of 4 available processors)

Solution count 10: 3.31956 3.32409 3.35189 ... 3.89457

Optimal solution found (tolerance 1.00e-04)
Best objective 3.319557673819e+00, best bound 3.319557673819e+00, gap 0.0000%
